0000000000000000
0000000000000000
0000000000000000
0000000000000000
0000000000000000
0000000000000000
0000000000000000
0000000000000000
0011110000000000
0000011000000000
0000001100000000
0000000111000000
0000111001110000
0011100000111100
1110000000111110
0000000000000000

